lattice_vector         3.268593         0.401791         0.401785
lattice_vector         0.454508         3.268999         0.401420
lattice_vector         0.454149         0.454171         3.269540
atom        -0.077391        -0.075988        -0.074660 	 Si
atom         1.277391         1.260988         1.244660 	 Si
