lattice_vector         3.393042         0.442808         0.442701
lattice_vector         0.498245         3.393895         0.443302
lattice_vector         0.498797         0.498599         3.393919
atom        -0.095360        -0.095010        -0.094618 	 Si
atom         1.295360         1.280010         1.264618 	 Si
