lattice_vector         3.559534         0.552781         0.552109
lattice_vector         0.611775         3.562169         0.554575
lattice_vector         0.613739         0.612896         3.562123
atom        -0.097279        -0.098308        -0.098625 	 Si
atom         1.297279         1.283308         1.268625 	 Si
