lattice_vector         3.617986         0.877289         0.872231
lattice_vector         0.933253         3.611477         0.872459
lattice_vector         0.933595         0.928483         3.603754
atom        -0.084366        -0.084110        -0.083513 	 Si
atom         1.284366         1.269110         1.253513 	 Si
