lattice_vector         3.858105         0.797823         0.795661
lattice_vector         0.862235         3.862803         0.800858
lattice_vector         0.866577         0.864026         3.861841
atom        -0.083897        -0.086274        -0.087358 	 Si
atom         1.283897         1.271274         1.257358 	 Si
