lattice_vector         3.334252         0.415401         0.415322
lattice_vector         0.469771         3.334496         0.415519
lattice_vector         0.469890         0.469772         3.334221
atom        -0.089868        -0.089529        -0.089146 	 Si
atom         1.289868         1.274529         1.259146 	 Si
