lattice_vector         3.676929         0.816902         0.813957
lattice_vector         0.875899         3.677062         0.816908
lattice_vector         0.878648         0.875509         3.673955
atom        -0.081942        -0.081605        -0.080852 	 Si
atom         1.281942         1.266605         1.250852 	 Si
