lattice_vector         3.777066         0.894323         0.891111
lattice_vector         0.954991         3.777827         0.895038
lattice_vector         0.958622         0.955201         3.774420
atom        -0.073847        -0.073546        -0.072840 	 Si
atom         1.273847         1.258546         1.242840 	 Si
