lattice_vector         3.181338         0.398477         0.398526
lattice_vector         0.450194         3.180898         0.398809
lattice_vector         0.450411         0.450499         3.180183
atom        -0.049226        -0.049352        -0.049568 	 Si
atom         1.249226         1.234352         1.219568 	 Si
