lattice_vector         3.659140         0.673828         0.672346
lattice_vector         0.734106         3.662188         0.675641
lattice_vector         0.736895         0.735190         3.661535
atom        -0.090771        -0.091469        -0.091485 	 Si
atom         1.290771         1.276469         1.261485 	 Si
