lattice_vector         3.610264         0.831353         0.827655
lattice_vector         0.888484         3.607380         0.829532
lattice_vector         0.890379         0.886493         3.602466
atom        -0.083321        -0.083248        -0.082710 	 Si
atom         1.283321         1.268248         1.252710 	 Si
