lattice_vector         3.615991         0.875372         0.870586
lattice_vector         0.931605         3.610188         0.871311
lattice_vector         0.932439         0.927558         3.602990
atom        -0.083649        -0.083537        -0.083049 	 Si
atom         1.283649         1.268537         1.253049 	 Si
