lattice_vector         3.100000         0.400000         0.400000
lattice_vector         0.450000         3.100000         0.400000
lattice_vector         0.450000         0.450000         3.100000
atom         0.000000         0.000000         0.000000 	 Si
atom         1.200000         1.185000         1.170000 	 Si
