lattice_vector         3.621496         0.880298         0.874535
lattice_vector         0.935513         3.613215         0.873403
lattice_vector         0.934530         0.928809         3.604171
atom        -0.085911        -0.085210        -0.084284 	 Si
atom         1.285911         1.270210         1.254284 	 Si
