lattice_vector         3.606535         0.865300         0.860857
lattice_vector         0.921722         3.601540         0.862051
lattice_vector         0.923022         0.918438         3.595008
atom        -0.083140        -0.083166        -0.082772 	 Si
atom         1.283140         1.268166         1.252772 	 Si
