lattice_vector  -2.800000   2.800000   2.800000
lattice_vector   2.800000  -2.800000   2.800000
lattice_vector   2.800000   2.800000  -2.800000
atom_frac   0.000000   0.000000   0.000000 Si
