lattice_vector  -2.550000   2.550000   2.550000
lattice_vector   2.550000  -2.550000   2.550000
lattice_vector   2.550000   2.550000  -2.550000
atom_frac   0.000000   0.000000   0.000000 Si
