lattice_vector  -2.050000   2.050000   2.050000
lattice_vector   2.050000  -2.050000   2.050000
lattice_vector   2.050000   2.050000  -2.050000
atom_frac   0.000000   0.000000   0.000000 Si
