lattice_vector   0.000000   3.350000   3.350000
lattice_vector   3.350000   0.000000   3.350000
lattice_vector   3.350000   3.350000   0.000000
atom_frac   0.000000   0.000000   0.000000 Si
atom_frac   0.250000   0.250000   0.250000 Si
