lattice_vector   0.000000   3.150000   3.150000
lattice_vector   3.150000   0.000000   3.150000
lattice_vector   3.150000   3.150000   0.000000
atom_frac   0.000000   0.000000   0.000000 Si
