lattice_vector  -2.250000   2.250000   2.250000
lattice_vector   2.250000  -2.250000   2.250000
lattice_vector   2.250000   2.250000  -2.250000
atom_frac   0.000000   0.000000   0.000000 Si
