# Si bcc structure

lattice_vector -2.7 2.7 2.7
lattice_vector 2.7 -2.7 2.7
lattice_vector 2.7 2.7 -2.7

atom 0.0 0.0 0.0 Si