# Si fcc structure

lattice_vector 0.0 2.7 2.7
lattice_vector 2.7 0.0 2.7
lattice_vector 2.7 2.7 0.0

atom 0.0 0.0 0.0 Si