lattice_vector  -2.750000   2.750000   2.750000
lattice_vector   2.750000  -2.750000   2.750000
lattice_vector   2.750000   2.750000  -2.750000
atom_frac   0.000000   0.000000   0.000000 Si
