lattice_vector  -2.350000   2.350000   2.350000
lattice_vector   2.350000  -2.350000   2.350000
lattice_vector   2.350000   2.350000  -2.350000
atom_frac   0.000000   0.000000   0.000000 Si
