lattice_vector   0.000000   2.950000   2.950000
lattice_vector   2.950000   0.000000   2.950000
lattice_vector   2.950000   2.950000   0.000000
atom_frac   0.000000   0.000000   0.000000 Si
