lattice_vector   0.000000   2.450000   2.450000
lattice_vector   2.450000   0.000000   2.450000
lattice_vector   2.450000   2.450000   0.000000
atom_frac   0.000000   0.000000   0.000000 Si
