# 
# This is the geometry file that corresponds to the current relaxation step.
# If you do not want this file to be written, set the "write_restart_geometry" flag to .false.
#  aims_uuid : 5DD93CC8-ABFA-4430-AEA5-C82237000B28                                
# 
lattice_vector      3.62149614      0.88029824      0.87453515
lattice_vector      0.93551301      3.61321515      0.87340280
lattice_vector      0.93452984      0.92880887      3.60417065
atom_frac      -0.01558486     -0.01572634     -0.01579244 Si
atom_frac       0.23406529      0.23425290      0.23444731 Si
# 
# What follows is the current estimated Hessian matrix constructed by the BFGS algorithm.
# This is NOT the true Hessian matrix of the system.
# If you do not want this information here, switch it off using the "hessian_to_restart_geometry" keyword.
# 
trust_radius             0.8000000119
hessian_block                1       1          15.843133           0.698149           1.295545           0.698149          17.299426           1.936071           1.295545           1.936071          18.236914
hessian_block                1       2         -13.843133          -0.698149          -1.295545          -0.698149         -15.299426          -1.936071          -1.295545          -1.936071         -16.236914
hessian_block                2       2          15.843133           0.698149           1.295545           0.698149          17.299426           1.936071           1.295545           1.936071          18.236914
hessian_block_lv             1       1          17.592173          -2.174236          -1.391683          -2.174236          19.893062          -4.435573          -1.391683          -4.435573          20.949437
hessian_block_lv             1       2          -1.404283          -4.382074          -4.029346          -5.457460          -0.413948          -0.400193           0.132615          -3.197277          -3.372046
hessian_block_lv             1       3           0.101906          -3.177941          -3.373184           0.766775          -2.600769          -3.038805          -3.987596           0.887615           0.339732
hessian_block_lv             2       2          20.992713          -0.502792          -3.407631          -0.502792          19.454759          -0.382692          -3.407631          -0.382692          21.218022
hessian_block_lv             2       3          -3.409140          -0.470195          -3.820215          -3.101916          -0.459257          -3.959796           0.166262          -5.566220          -0.748828
hessian_block_lv             3       3          21.141166          -4.015945          -0.881282          -4.015945          20.621369          -1.347626          -0.881282          -1.347626          18.329263
hessian_block_lv_atom        1       1           4.368626           2.598550           1.466231           3.760343           2.150843           1.217189           3.301387           1.830116           1.039923
hessian_block_lv_atom        1       2          -4.368626          -2.598550          -1.466231          -3.760343          -2.150843          -1.217189          -3.301387          -1.830116          -1.039923
hessian_block_lv_atom        2       1           1.385907           1.463639          -0.742912           1.143064           1.404000          -0.620340           0.969899           1.343052          -0.528988
hessian_block_lv_atom        2       2          -1.385907          -1.463639           0.742912          -1.143064          -1.404000           0.620340          -0.969899          -1.343052           0.528988
hessian_block_lv_atom        3       1          -0.778050          -1.754184          -0.695211          -0.650106          -1.459389          -0.341997          -0.555995          -1.244518          -0.102279
hessian_block_lv_atom        3       2           0.778050           1.754184           0.695211           0.650106           1.459389           0.341997           0.555995           1.244518           0.102279
