lattice_vector  -2.400000   2.400000   2.400000
lattice_vector   2.400000  -2.400000   2.400000
lattice_vector   2.400000   2.400000  -2.400000
atom_frac   0.000000   0.000000   0.000000 Si
