lattice_vector  -2.100000   2.100000   2.100000
lattice_vector   2.100000  -2.100000   2.100000
lattice_vector   2.100000   2.100000  -2.100000
atom_frac   0.000000   0.000000   0.000000 Si
