# Physical settings
  xc                 pw-lda
  spin               none
  relativistic       atomic_zora scalar

# SCF settings
  sc_accuracy_rho    1E-4
  sc_accuracy_eev    1E-2
  sc_accuracy_etot   1E-5
  sc_iter_limit      40

# k-grid settings
  k_grid   12  24  1
