

lattice_vector  7.6593806538126827  0.0000000000000000  0.0000000000000000
lattice_vector  0.0000000000000000  3.8296903269063414  0.0000000000000000
lattice_vector  0.0000000000000000  0.0000000000000000  35.4159999999999968

atom -1.2063524529754976  0.0000000000000000  -0.8530200000000001  H
atom 1.2063524529754976  0.0000000000000000  -0.8530200000000001  H
atom 2.6233378739308435  0.0000000000000000  -0.8530200000000001  H
atom 5.0360427798818392  0.0000000000000000  -0.8530200000000001  H
atom 0.0000000000000000  0.0000000000000000  0.0000000000000000  Si
atom 3.8296903269063414  0.0000000000000000  0.0000000000000000  Si
atom 0.0000000000000000  1.9148451634531707  1.3540000000000001  Si
atom 3.8296903269063414  1.9148451634531707  1.3540000000000001  Si
atom 1.9148451634531707  1.9148451634531707  2.7080000000000002  Si
atom 5.7445354903595121  1.9148451634531707  2.7080000000000002  Si
atom 1.9148451634531707  0.0000000000000000  4.0620000000000003  Si
atom 5.7445354903595121  0.0000000000000000  4.0620000000000003  Si
