lattice_vector   0.000000   3.100000   3.100000
lattice_vector   3.100000   0.000000   3.100000
lattice_vector   3.100000   3.100000   0.000000
atom_frac   0.000000   0.000000   0.000000 Si
