lattice_vector  -2.650000   2.650000   2.650000
lattice_vector   2.650000  -2.650000   2.650000
lattice_vector   2.650000   2.650000  -2.650000
atom_frac   0.000000   0.000000   0.000000 Si
